
Gurobi 11.0.0 (linux64) logging started Mon Jul 22 11:06:51 2024

Set parameter LogFile to value "/lustre1/scratch/348/vsc34888/JointResearch/05.Models/06.Benchmarking/M.Random_forest/RTS24_mod1_ByStages_nc90/openStarNet_RTS24_mod1_ByStages_nc90.log"
Set parameter Method to value 2
Set parameter MIPFocus to value 1
Set parameter Presolve to value 2
Set parameter RINS to value 100
Set parameter MIPGap to value 0.01
Set parameter Threads to value 36
Set parameter TimeLimit to value 259200
Set parameter IterationLimit to value 760000000
Gurobi Optimizer version 11.0.0 build v11.0.0rc2 (linux64 - "Rocky Linux 8.9 (Green Obsidian)")

CPU model: Intel(R) Xeon(R) Gold 6240 CPU @ 2.60GHz, instruction set [SSE2|AVX|AVX2|AVX512]
Thread count: 36 physical cores, 36 logical processors, using up to 36 threads

Optimize a model with 31953 rows, 21593 columns and 87137 nonzeros
Model fingerprint: 0x59ddcad1
Variable types: 21572 continuous, 21 integer (21 binary)
Coefficient statistics:
  Matrix range     [1e-03, 5e+02]
  Objective range  [1e+00, 1e+00]
  Bounds range     [5e-05, 3e+00]
  RHS range        [5e-05, 3e+00]
Presolve removed 19026 rows and 10944 columns
Presolve time: 0.12s
Presolved: 12927 rows, 10649 columns, 46679 nonzeros
Variable types: 10628 continuous, 21 integer (21 binary)
Found heuristic solution: objective 102.0368997
Root relaxation presolve removed 3 rows and 3 columns
Root relaxation presolved: 12924 rows, 10646 columns, 46673 nonzeros

Root barrier log...

Ordering time: 0.01s

Barrier statistics:
 Dense cols : 21
 AA' NZ     : 8.669e+04
 Factor NZ  : 2.483e+05 (roughly 12 MB of memory)
 Factor Ops : 5.091e+06 (less than 1 second per iteration)
 Threads    : 36

                  Objective                Residual
Iter       Primal          Dual         Primal    Dual     Compl     Time
   0   1.70938573e+06 -7.60986188e+07  1.39e+01 1.68e+02  1.40e+04     0s
   1   4.96462553e+05 -3.33542351e+07  3.92e+00 2.57e-09  3.50e+03     0s
   2   6.48973917e+04 -2.71678600e+07  4.12e-01 7.02e-09  1.13e+03     0s
   3   2.90686541e+04 -3.63461071e+06  9.20e-02 5.07e-10  1.38e+02     0s
   4   1.68243888e+04 -2.80693256e+05  4.36e-03 1.65e-10  9.98e+00     0s
   5   7.20427710e+03 -7.23657699e+04  6.40e-04 4.05e-11  2.64e+00     0s
   6   1.57841348e+03 -1.44647886e+04  3.63e-05 6.86e-12  5.32e-01     0s
   7   6.41868366e+02 -3.46028252e+03  7.62e-06 1.58e-12  1.36e-01     0s
   8   3.60879253e+02 -1.03138979e+03  2.91e-06 1.82e-12  4.62e-02     0s
   9   2.16648600e+02 -4.55465153e+02  1.36e-06 9.09e-13  2.23e-02     0s
  10   1.36288769e+02 -7.16567073e+01  6.33e-07 4.55e-13  6.90e-03     0s
  11   8.08919878e+01  2.03105473e+00  2.28e-07 9.09e-13  2.62e-03     0s
  12   6.67517506e+01  3.22337699e+01  1.36e-07 9.09e-13  1.15e-03     0s
  13   5.86784909e+01  3.65689232e+01  8.42e-08 9.09e-13  7.34e-04     0s
  14   5.39232772e+01  4.08806480e+01  5.14e-08 4.55e-13  4.33e-04     0s
  15   5.07804624e+01  4.24612548e+01  3.07e-08 4.55e-13  2.76e-04     0s
  16   4.97769406e+01  4.31972791e+01  2.34e-08 9.09e-13  2.18e-04     0s
  17   4.87110843e+01  4.47367164e+01  1.65e-08 9.09e-13  1.32e-04     0s
  18   4.71359518e+01  4.57516002e+01  5.86e-09 9.09e-13  4.59e-05     0s
  19   4.66961890e+01  4.59073998e+01  2.95e-09 9.09e-13  2.62e-05     0s
  20   4.64756753e+01  4.59975803e+01  1.54e-09 4.55e-13  1.59e-05     0s
  21   4.63559999e+01  4.61059008e+01  7.50e-10 9.09e-13  8.30e-06     0s
  22   4.62921867e+01  4.61410982e+01  3.38e-10 9.09e-13  5.01e-06     0s
  23   4.62865917e+01  4.61906584e+01  3.04e-10 4.55e-13  3.18e-06     0s
  24   4.62692963e+01  4.62022182e+01  2.06e-10 9.09e-13  2.23e-06     0s
  25   4.62543429e+01  4.62231697e+01  1.13e-10 9.09e-13  1.03e-06     0s
  26   4.62442400e+01  4.62285969e+01  7.34e-11 9.09e-13  5.19e-07     0s
  27   4.62410203e+01  4.62327891e+01  6.47e-11 9.09e-13  2.73e-07     0s
  28   4.62381328e+01  4.62354939e+01  6.59e-11 4.55e-13  8.76e-08     0s
  29   4.62375042e+01  4.62370885e+01  3.87e-11 9.70e-13  1.38e-08     0s
  30   4.62374324e+01  4.62373134e+01  3.33e-10 3.44e-12  3.95e-09     0s
  31   4.62374314e+01  4.62374243e+01  1.04e-09 1.56e-10  2.34e-10     0s
  32   4.62374295e+01  4.62374290e+01  3.25e-10 1.20e-11  1.69e-11     0s
  33   4.62374295e+01  4.62374295e+01  7.98e-11 9.09e-13  3.09e-13     1s

Barrier solved model in 33 iterations and 0.50 seconds (0.44 work units)
Optimal objective 4.62374295e+01


Root relaxation: objective 4.623743e+01, 2008 iterations, 0.34 seconds (0.26 work units)

    Nodes    |    Current Node    |     Objective Bounds      |     Work
 Expl Unexpl |  Obj  Depth IntInf | Incumbent    BestBd   Gap | It/Node Time

     0     0   46.23743    0   19  102.03690   46.23743  54.7%     -    0s
H    0     0                      91.4315488   46.97414  48.6%     -    1s
     0     0   46.97414    0   13   91.43155   46.97414  48.6%     -    1s
H    0     0                      87.7998875   47.01584  46.5%     -    1s
     0     0   47.22205    0   13   87.79989   47.22205  46.2%     -    1s
     0     0   47.51708    0   16   87.79989   47.51708  45.9%     -    1s
     0     0   47.59914    0   17   87.79989   47.59914  45.8%     -    1s
     0     0   47.60771    0   15   87.79989   47.60771  45.8%     -    2s
     0     0   47.60811    0   16   87.79989   47.60811  45.8%     -    2s
     0     0   47.60811    0   16   87.79989   47.60811  45.8%     -    2s
H    0     0                      81.3706770   47.83581  41.2%     -    2s
     0     0   47.83581    0   14   81.37068   47.83581  41.2%     -    2s
     0     0   48.10535    0   14   81.37068   48.10535  40.9%     -    2s
     0     0   48.10535    0   14   81.37068   48.10535  40.9%     -    2s
     0     0   48.10535    0   14   81.37068   48.10535  40.9%     -    2s
     0     0   48.10535    0   14   81.37068   48.10535  40.9%     -    2s
H    0     0                      80.0859016   48.10535  39.9%     -    2s
H    0     0                      75.6889363   48.10535  36.4%     -    2s
     0     0   48.25144    0   11   75.68894   48.25144  36.3%     -    2s
     0     0   48.29360    0   11   75.68894   48.29360  36.2%     -    3s
H    0     0                      69.7532002   48.44711  30.5%     -    3s
     0     0   48.44711    0   15   69.75320   48.44711  30.5%     -    3s
H    0     0                      66.6967974   48.44711  27.4%     -   24s
     0     2   48.44711    0   15   66.69680   48.44711  27.4%     -   24s
     3     8   48.93681    2   15   66.69680   48.44711  27.4%   882   25s
H   29    32                      66.4951647   49.20263  26.0%   805   25s
H   99   128                      66.3964396   51.57867  22.3%   665   29s
H  107   128                      66.3225745   51.57867  22.2%   648   29s
   171   184   59.30448    8   13   66.32257   52.64309  20.6%   613   30s
   299   239     cutoff   11        66.32257   52.64309  20.6%   614   58s
   399   261     cutoff   12        66.32257   52.79063  20.4%   555   87s
   822   314     cutoff   11        66.32257   52.93215  20.2%   478   90s
  1239   316     cutoff   10        66.32257   55.77040  15.9%   435   95s
  1895   298   66.04983   17    4   66.32257   57.71237  13.0%   381  128s
  2299   265   66.08736   14    7   66.32257   59.11509  10.9%   359  155s

Cutting planes:
  Gomory: 3
  Implied bound: 167
  MIR: 450
  Relax-and-lift: 33

Explored 3613 nodes (1082920 simplex iterations) in 158.02 seconds (199.30 work units)
Thread count was 36 (of 36 available processors)

Solution count 10: 66.3226 66.3964 66.4952 ... 91.4315

Optimal solution found (tolerance 1.00e-02)
Best objective 6.632257454103e+01, best bound 6.632257454103e+01, gap 0.0000%

Gurobi 11.0.0 (linux64) logging started Mon Jul 22 11:09:34 2024

Set parameter LogFile to value "/lustre1/scratch/348/vsc34888/JointResearch/05.Models/06.Benchmarking/M.Random_forest/RTS24_mod1_ByStages_nc90/openStarNet_RTS24_mod1_ByStages_nc90.log"
Set parameter Method to value 2
Set parameter MIPFocus to value 1
Set parameter Presolve to value 2
Set parameter RINS to value 100
Set parameter MIPGap to value 0.01
Set parameter Threads to value 36
Set parameter TimeLimit to value 259200
Set parameter IterationLimit to value 760000000
Gurobi Optimizer version 11.0.0 build v11.0.0rc2 (linux64 - "Rocky Linux 8.9 (Green Obsidian)")

CPU model: Intel(R) Xeon(R) Gold 6240 CPU @ 2.60GHz, instruction set [SSE2|AVX|AVX2|AVX512]
Thread count: 36 physical cores, 36 logical processors, using up to 36 threads

Optimize a model with 31953 rows, 21572 columns and 79556 nonzeros
Model fingerprint: 0x4a6c4701
Coefficient statistics:
  Matrix range     [1e-03, 5e+02]
  Objective range  [1e+00, 1e+00]
  Bounds range     [5e-05, 3e+00]
  RHS range        [5e-05, 3e+01]
Presolve removed 26197 rows and 11614 columns
Presolve time: 0.04s
Presolved: 5756 rows, 10055 columns, 24860 nonzeros

Ordering time: 0.00s

Barrier statistics:
 AA' NZ     : 1.285e+04
 Factor NZ  : 4.594e+04 (roughly 5 MB of memory)
 Factor Ops : 5.877e+05 (less than 1 second per iteration)
 Threads    : 1

                  Objective                Residual
Iter       Primal          Dual         Primal    Dual     Compl     Time
   0   4.15277171e+06 -6.23410130e+07  1.49e+01 7.16e+02  5.77e+04     0s
   1   2.80335927e+05 -4.96381987e+07  9.45e-01 2.74e-11  6.02e+03     0s
   2   7.74075474e+04 -1.72405799e+07  2.57e-01 5.21e-11  1.50e+03     0s
   3   3.89483415e+04 -5.86013514e+06  9.18e-02 4.50e-11  4.37e+02     0s
   4   2.22502407e+04 -7.33841328e+05  2.01e-03 4.37e-11  4.67e+01     0s
   5   1.39283123e+04 -1.47100033e+05  2.12e-11 2.20e-11  9.85e+00     0s
   6   4.39315413e+03 -3.33949482e+04  1.43e-11 7.28e-12  2.31e+00     0s
   7   8.96743302e+02 -4.25789773e+03  1.81e-11 2.18e-11  3.15e-01     0s
   8   3.83666704e+02 -6.29116654e+02  9.31e-12 7.28e-12  6.20e-02     0s
   9   2.17911671e+02 -1.98924597e+02  6.56e-12 1.46e-11  2.55e-02     0s
  10   1.36811001e+02 -4.40625230e+01  4.19e-12 3.64e-12  1.11e-02     0s
  11   1.00600607e+02  2.24031989e+01  2.51e-12 7.28e-12  4.79e-03     0s
  12   8.23952286e+01  4.38994502e+01  8.30e-12 7.28e-12  2.36e-03     0s
  13   7.08462118e+01  5.92891731e+01  8.24e-12 7.28e-12  7.07e-04     0s
  14   6.67881111e+01  6.55068552e+01  6.77e-12 7.28e-12  7.84e-05     0s
  15   6.63918656e+01  6.61939727e+01  1.41e-11 7.28e-12  1.21e-05     0s
  16   6.63368132e+01  6.62844752e+01  5.91e-11 3.64e-12  3.20e-06     0s
  17   6.63259311e+01  6.63153099e+01  1.89e-11 7.28e-12  6.50e-07     0s
  18   6.63226634e+01  6.63224095e+01  8.97e-11 7.28e-12  1.55e-08     0s
  19   6.63225746e+01  6.63225744e+01  1.62e-10 7.28e-12  1.55e-11     0s
  20   6.63225745e+01  6.63225745e+01  2.93e-11 7.28e-12  1.55e-14     0s

Barrier solved model in 20 iterations and 0.11 seconds (0.11 work units)
Optimal objective 6.63225745e+01

Crossover log...

    1221 DPushes remaining with DInf 0.0000000e+00                 0s
       0 DPushes remaining with DInf 0.0000000e+00                 0s

     301 PPushes remaining with PInf 0.0000000e+00                 0s
       0 PPushes remaining with PInf 0.0000000e+00                 0s

  Push phase complete: Pinf 0.0000000e+00, Dinf 7.8152617e-13      0s

Iteration    Objective       Primal Inf.    Dual Inf.      Time
     367    6.6322575e+01   0.000000e+00   0.000000e+00      0s

Use crossover to convert LP symmetric solution to basic solution...
Crossover log...

       0 DPushes remaining with DInf 0.0000000e+00                 0s

     215 PPushes remaining with PInf 0.0000000e+00                 0s
       0 PPushes remaining with PInf 0.0000000e+00                 0s

  Push phase complete: Pinf 0.0000000e+00, Dinf 8.3391336e-13      0s

Iteration    Objective       Primal Inf.    Dual Inf.      Time
     589    6.6322575e+01   0.000000e+00   0.000000e+00      0s

Solved in 589 iterations and 0.16 seconds (0.13 work units)
Optimal objective  6.632257454e+01

Gurobi 11.0.0 (linux64) logging started Mon Jul 22 16:19:59 2024

Set parameter LogFile to value "/lustre1/scratch/348/vsc34888/JointResearch/05.Models/06.Benchmarking/M.Random_forest/RTS24_mod1_ByStages_nc90/openStarNet_RTS24_mod1_ByStages_nc90.log"
Set parameter Method to value 2
Set parameter MIPFocus to value 1
Set parameter Presolve to value 2
Set parameter RINS to value 100
Set parameter MIPGap to value 0.01
Set parameter Threads to value 36
Set parameter TimeLimit to value 259200
Set parameter IterationLimit to value 760000000
Gurobi Optimizer version 11.0.0 build v11.0.0rc2 (linux64 - "Rocky Linux 8.9 (Green Obsidian)")

CPU model: Intel(R) Xeon(R) Gold 6240 CPU @ 2.60GHz, instruction set [SSE2|AVX|AVX2|AVX512]
Thread count: 36 physical cores, 36 logical processors, using up to 36 threads

Optimize a model with 31953 rows, 21593 columns and 87137 nonzeros
Model fingerprint: 0x3836785d
Variable types: 21572 continuous, 21 integer (21 binary)
Coefficient statistics:
  Matrix range     [1e-03, 5e+02]
  Objective range  [1e+00, 1e+00]
  Bounds range     [5e-05, 3e+00]
  RHS range        [5e-05, 3e+00]
Presolve removed 19026 rows and 10944 columns
Presolve time: 0.11s
Presolved: 12927 rows, 10649 columns, 46679 nonzeros
Variable types: 10628 continuous, 21 integer (21 binary)
Found heuristic solution: objective 102.0368997
Root relaxation presolve removed 3 rows and 3 columns
Root relaxation presolved: 12924 rows, 10646 columns, 46673 nonzeros

Root barrier log...

Ordering time: 0.01s

Barrier statistics:
 Dense cols : 21
 AA' NZ     : 8.669e+04
 Factor NZ  : 2.483e+05 (roughly 12 MB of memory)
 Factor Ops : 5.091e+06 (less than 1 second per iteration)
 Threads    : 36

                  Objective                Residual
Iter       Primal          Dual         Primal    Dual     Compl     Time
   0   1.70939813e+06 -7.61020387e+07  1.39e+01 1.68e+02  1.40e+04     0s
   1   4.96468241e+05 -3.33543451e+07  3.92e+00 1.53e-09  3.50e+03     0s
   2   6.48985950e+04 -2.71679548e+07  4.12e-01 5.91e-10  1.13e+03     0s
   3   2.90697406e+04 -3.63463277e+06  9.20e-02 5.80e-10  1.38e+02     0s
   4   1.68248326e+04 -2.80693431e+05  4.36e-03 7.45e-11  9.98e+00     0s
   5   7.20410407e+03 -7.23658849e+04  6.40e-04 4.38e-11  2.64e+00     0s
   6   1.57840597e+03 -1.44648086e+04  3.63e-05 2.81e-12  5.32e-01     0s
   7   6.41870984e+02 -3.46028129e+03  7.62e-06 9.09e-13  1.36e-01     0s
   8   3.60880342e+02 -1.03138494e+03  2.91e-06 9.09e-13  4.62e-02     0s
   9   2.16649283e+02 -4.55464568e+02  1.36e-06 9.09e-13  2.23e-02     0s
  10   1.36262697e+02 -7.17481817e+01  6.33e-07 9.09e-13  6.90e-03     0s
  11   8.08844013e+01  1.98951152e+00  2.28e-07 9.09e-13  2.62e-03     0s
  12   6.67506515e+01  3.22191987e+01  1.36e-07 9.09e-13  1.15e-03     0s
  13   5.88779015e+01  3.65664721e+01  8.55e-08 9.09e-13  7.40e-04     0s
  14   5.45717506e+01  4.10215219e+01  5.58e-08 9.09e-13  4.50e-04     0s
  15   5.12809007e+01  4.27236527e+01  3.36e-08 4.55e-13  2.84e-04     0s
  16   4.89485038e+01  4.39953225e+01  1.76e-08 9.09e-13  1.64e-04     0s
  17   4.77015978e+01  4.48442707e+01  9.00e-09 4.55e-13  9.48e-05     0s
  18   4.67193351e+01  4.56579496e+01  2.84e-09 9.09e-13  3.52e-05     0s
  19   4.66262191e+01  4.57983563e+01  2.31e-09 9.09e-13  2.75e-05     0s
  20   4.64537046e+01  4.60116523e+01  1.28e-09 9.09e-13  1.47e-05     0s
  21   4.63888352e+01  4.60762283e+01  9.00e-10 9.09e-13  1.04e-05     0s
  22   4.63446833e+01  4.61643595e+01  6.39e-10 9.09e-13  5.98e-06     0s
  23   4.62954354e+01  4.61738245e+01  3.44e-10 9.09e-13  4.03e-06     0s
  24   4.62699112e+01  4.62067214e+01  1.91e-10 9.09e-13  2.10e-06     0s
  25   4.62463267e+01  4.62262702e+01  8.50e-11 9.09e-13  6.65e-07     0s
  26   4.62388970e+01  4.62299911e+01  4.30e-10 4.55e-13  2.95e-07     0s
  27   4.62378087e+01  4.62353971e+01  1.69e-10 9.09e-13  8.00e-08     0s
  28   4.62375074e+01  4.62370725e+01  1.12e-10 2.05e-12  1.44e-08     0s
  29   4.62374442e+01  4.62373153e+01  4.99e-09 1.75e-12  4.28e-09     0s
  30   4.62374315e+01  4.62374162e+01  2.67e-09 2.05e-11  5.08e-10     0s
  31   4.62374295e+01  4.62374262e+01  8.92e-10 4.70e-12  1.10e-10     0s
  32   4.62374295e+01  4.62374292e+01  1.78e-09 9.09e-13  7.83e-12     0s

Barrier solved model in 32 iterations and 0.49 seconds (0.43 work units)
Optimal objective 4.62374295e+01


Root relaxation: objective 4.623743e+01, 2012 iterations, 0.34 seconds (0.26 work units)

    Nodes    |    Current Node    |     Objective Bounds      |     Work
 Expl Unexpl |  Obj  Depth IntInf | Incumbent    BestBd   Gap | It/Node Time

     0     0   46.23743    0   19  102.03690   46.23743  54.7%     -    0s
     0     0   46.95892    0   12  102.03690   46.95892  54.0%     -    1s
H    0     0                      98.1963581   46.95892  52.2%     -    1s
H    0     0                      91.4315488   46.97986  48.6%     -    1s
H    0     0                      87.7998875   46.97986  46.5%     -    1s
     0     0   47.22205    0   13   87.79989   47.22205  46.2%     -    1s
     0     0   47.30712    0   14   87.79989   47.30712  46.1%     -    1s
     0     0   47.36227    0   14   87.79989   47.36227  46.1%     -    1s
     0     0   47.36488    0   15   87.79989   47.36488  46.1%     -    1s
     0     0   47.36800    0   15   87.79989   47.36800  46.1%     -    2s
     0     0   47.36800    0   15   87.79989   47.36800  46.1%     -    2s
     0     0   47.52444    0   13   87.79989   47.52444  45.9%     -    2s
H    0     0                      81.3706770   47.54992  41.6%     -    2s
     0     0   47.85373    0   11   81.37068   47.85373  41.2%     -    2s
     0     0   47.85373    0   11   81.37068   47.85373  41.2%     -    2s
     0     0   48.10613    0   18   81.37068   48.10613  40.9%     -    2s
     0     0   48.10613    0   17   81.37068   48.10613  40.9%     -    2s
H    0     0                      75.6889363   48.10613  36.4%     -    3s
     0     0   48.10613    0   15   75.68894   48.10613  36.4%     -    3s
     0     0   48.10613    0   15   75.68894   48.10613  36.4%     -    3s
     0     0   48.19942    0   15   75.68894   48.19942  36.3%     -    3s
     0     0   48.19942    0   15   75.68894   48.19942  36.3%     -    3s
     0     0   48.19942    0   15   75.68894   48.19942  36.3%     -    3s
     0     0   48.19942    0   15   75.68894   48.19942  36.3%     -    3s
     0     0   48.19942    0   15   75.68894   48.19942  36.3%     -    3s
     0     0   48.19942    0   11   75.68894   48.19942  36.3%     -    3s
H    0     0                      67.9451927   48.19942  29.1%     -    9s
     0     2   48.19942    0   11   67.94519   48.19942  29.1%     -    9s
     1     4   48.19942    1   11   67.94519   48.19942  29.1%   861   10s
H   14    16                      66.4951647   49.22220  26.0%   807   10s
H   99   124                      66.3964396   51.50770  22.4%   666   16s
H  109   124                      66.3225745   51.50770  22.3%   655   16s
   911   336     cutoff   11        66.32257   52.64117  20.6%   435   20s
  1168   331   63.85725    9   10   66.32257   54.24188  18.2%   424   25s
  3452    27     cutoff   14        66.32257   62.89293  5.17%   308   30s

Cutting planes:
  Gomory: 2
  Implied bound: 104
  MIR: 487
  Relax-and-lift: 32

Explored 3646 nodes (1099082 simplex iterations) in 30.57 seconds (40.01 work units)
Thread count was 36 (of 36 available processors)

Solution count 10: 66.3226 66.3964 66.4952 ... 102.037

Optimal solution found (tolerance 1.00e-02)
Best objective 6.632257454103e+01, best bound 6.632257454103e+01, gap 0.0000%

Gurobi 11.0.0 (linux64) logging started Mon Jul 22 16:20:34 2024

Set parameter LogFile to value "/lustre1/scratch/348/vsc34888/JointResearch/05.Models/06.Benchmarking/M.Random_forest/RTS24_mod1_ByStages_nc90/openStarNet_RTS24_mod1_ByStages_nc90.log"
Set parameter Method to value 2
Set parameter MIPFocus to value 1
Set parameter Presolve to value 2
Set parameter RINS to value 100
Set parameter MIPGap to value 0.01
Set parameter Threads to value 36
Set parameter TimeLimit to value 259200
Set parameter IterationLimit to value 760000000
Gurobi Optimizer version 11.0.0 build v11.0.0rc2 (linux64 - "Rocky Linux 8.9 (Green Obsidian)")

CPU model: Intel(R) Xeon(R) Gold 6240 CPU @ 2.60GHz, instruction set [SSE2|AVX|AVX2|AVX512]
Thread count: 36 physical cores, 36 logical processors, using up to 36 threads

Optimize a model with 31953 rows, 21572 columns and 79556 nonzeros
Model fingerprint: 0x71d43aa8
Coefficient statistics:
  Matrix range     [1e-03, 5e+02]
  Objective range  [1e+00, 1e+00]
  Bounds range     [5e-05, 3e+00]
  RHS range        [5e-05, 3e+01]
Presolve removed 26661 rows and 12091 columns
Presolve time: 0.04s
Presolved: 5292 rows, 9591 columns, 23121 nonzeros

Ordering time: 0.00s

Barrier statistics:
 AA' NZ     : 1.226e+04
 Factor NZ  : 4.673e+04 (roughly 5 MB of memory)
 Factor Ops : 6.681e+05 (less than 1 second per iteration)
 Threads    : 1

                  Objective                Residual
Iter       Primal          Dual         Primal    Dual     Compl     Time
   0   3.52587542e+06 -2.75926820e+07  1.81e+01 9.29e+02  2.65e+04     0s
   1   2.32168008e+05 -1.99970940e+07  1.16e+00 2.62e+00  2.66e+03     0s
   2   6.78460373e+04 -7.00210964e+06  3.21e-01 2.59e-11  6.69e+02     0s
   3   2.97574825e+04 -2.16902934e+06  6.68e-02 1.46e-11  1.61e+02     0s
   4   1.79911936e+04 -1.72857267e+05  2.42e-03 8.19e-12  1.22e+01     0s
   5   7.78898938e+03 -4.49174995e+04  3.02e-04 5.60e-12  3.35e+00     0s
   6   1.75634585e+03 -1.24190511e+04  1.84e-05 3.12e-12  8.99e-01     0s
   7   5.16638662e+02 -2.06898108e+03  3.14e-07 1.82e-12  1.64e-01     0s
   8   2.55103085e+02 -3.50563536e+02  1.03e-08 1.82e-12  3.84e-02     0s
   9   1.49539995e+02 -5.98022048e+01  3.70e-09 1.82e-12  1.33e-02     0s
  10   1.07028373e+02  9.87499846e+00  1.76e-09 3.64e-12  6.16e-03     0s
  11   8.79397604e+01  4.23820824e+01  8.87e-10 3.64e-12  2.89e-03     0s
  12   7.49451447e+01  5.63934254e+01  3.32e-10 1.82e-12  1.18e-03     0s
  13   6.87463333e+01  6.27616216e+01  8.52e-11 1.82e-12  3.79e-04     0s
  14   6.68839548e+01  6.53328407e+01  1.71e-11 3.64e-12  9.83e-05     0s
  15   6.63621963e+01  6.60994261e+01  1.68e-11 1.82e-12  1.67e-05     0s
  16   6.63342824e+01  6.62531083e+01  3.00e-11 1.82e-12  5.15e-06     0s
  17   6.63251543e+01  6.63125300e+01  1.63e-11 1.82e-12  8.00e-07     0s
  18   6.63227119e+01  6.63215672e+01  2.72e-11 3.64e-12  7.26e-08     0s
  19   6.63225747e+01  6.63225735e+01  1.75e-11 1.82e-12  7.33e-11     0s
  20   6.63225745e+01  6.63225745e+01  9.31e-11 1.82e-12  7.33e-14     0s

Barrier solved model in 20 iterations and 0.11 seconds (0.10 work units)
Optimal objective 6.63225745e+01

Crossover log...

    1150 DPushes remaining with DInf 0.0000000e+00                 0s
       0 DPushes remaining with DInf 0.0000000e+00                 0s

     281 PPushes remaining with PInf 0.0000000e+00                 0s
       0 PPushes remaining with PInf 0.0000000e+00                 0s

  Push phase complete: Pinf 0.0000000e+00, Dinf 1.6876156e-12      0s

Iteration    Objective       Primal Inf.    Dual Inf.      Time
     296    6.6322575e+01   0.000000e+00   0.000000e+00      0s

Use crossover to convert LP symmetric solution to basic solution...
Crossover log...

       0 DPushes remaining with DInf 0.0000000e+00                 0s

     217 PPushes remaining with PInf 0.0000000e+00                 0s
       0 PPushes remaining with PInf 0.0000000e+00                 0s

  Push phase complete: Pinf 0.0000000e+00, Dinf 5.3963454e-13      0s

Iteration    Objective       Primal Inf.    Dual Inf.      Time
     522    6.6322575e+01   0.000000e+00   0.000000e+00      0s

Solved in 522 iterations and 0.16 seconds (0.12 work units)
Optimal objective  6.632257454e+01
